Maximize

T_0


Subject To

a0: 88.0 x_0 + 23.0 x_1 + 26.0 x_2 + 23.0 x_3 + 113.0 x_4 + 34.0 x_5 + 55.0 x_6 + 50.0 x_7 + 165.0 x_8 + 88.0 x_9 + 23.0 x_10 + 26.0 x_11 + 23.0 x_12 + 113.0 x_13 + 34.0 x_14 + 55.0 x_15 + 50.0 x_16 + 165.0 x_17 + 113.0 x_18 + 34.0 x_19 <= 1000.0
b0: 84.0 x_0 + 11.0 x_1 + 22.0 x_2 + 30.0 x_3 + 99.0 x_4 + 32.0 x_5 + 58.0 x_6 + 37.0 x_7 + 200.0 x_8 + 84.0 x_9 + 11.0 x_10 + 22.0 x_11 + 30.0 x_12 + 99.0 x_13 + 32.0 x_14 + 58.0 x_15 + 37.0 x_16 + 200.0 x_17 + 99.0 x_18 + 32.0 x_19 <= 1000.0
c0: x_0 - T_0 < 0
c1: x_1 - T_0 < 0
c2: x_2 - T_0 < 0
c3: x_3 - T_0 < 0
c4: x_4 - T_0 < 0
c5: x_5 - T_0 < 0
c6: x_6 - T_0 < 0
c7: x_7 - T_0 < 0
c8: x_8 - T_0 < 0
c9: x_9 - T_0 < 0
c10: x_10 - T_0 < 0
c11: x_11 - T_0 < 0
c12: x_12 - T_0 < 0
c13: x_13 - T_0 < 0
c14: x_14 - T_0 < 0
c15: x_15 - T_0 < 0
c16: x_16 - T_0 < 0
c17: x_17 - T_0 < 0
c18: x_18 - T_0 < 0
c19: x_19 - T_0 < 0
d0: 200.0 x_0 < 100
d1: 100.0 x_1 < 100
d2: 800.0 x_2 < 100
d3: 300.0 x_3 < 100
d4: 500.0 x_4 < 100
d5: 600.0 x_5 < 100
d6: 700.0 x_6 < 100
d7: 400.0 x_7 < 100
d8: 900.0 x_8 < 100
d9: 750.0 x_9 < 100
d10: 650.0 x_10 < 100
d11: 550.0 x_11 < 100
d12: 850.0 x_12 < 100
d13: 950.0 x_13 < 100
d14: 450.0 x_14 < 100
d15: 150.0 x_15 < 100
d16: 250.0 x_16 < 100
d17: 350.0 x_17 < 100
d18: 999.0 x_18 < 100
d19: 899.0 x_19 < 100



Bounds


x_0 <= 100
x_1 <= 200
x_2 <= 300
x_3 <= 400
x_4 <= 500
x_5 <= 400
x_6 <= 300
x_7 <= 200
x_8 <= 100
x_9 <= 100
x_10 <= 200
x_11 <= 300
x_12 <= 400
x_13 <= 500
x_14 <= 400
x_15 <= 300
x_16 <= 200
x_17 <= 100
x_18 <= 500
x_19 <= 400




General

 x_0 x_1 x_2 x_3 x_4 x_5 x_6 x_7 x_8 x_9 x_10 x_11 x_12 x_13 x_14 x_15 x_16 x_17 x_18 x_19



End
